20	2
9	8	
0	0	0	9	2	3	4	5	8	9	12	14	19	
19	2	3	2	16	15	
1038	2	3	3	7	17	6	
1075	3	3	3	18	6	17	
15	3	3	3	15	11	10	
11	3	2	1	20	
835	3	3	1	16	
9	3	3	1	20	
7	3	3	1	17	
255	2	2	1	13	
299	2	2	1	20	
8	3	3	1	20	
792	3	3	1	20	
555	3	3	1	20	
15	2	2	1	20	
16	3	3	1	18	
6	3	3	1	20	
1054	2	2	1	20	
12	2	2	1	20	
0	0	0	0	